proyfinal/src/viki/013/experimentInOfficeAgust.take6.output/7698fe7d-7a64-461c-ad92-21d00dbd3205.als.dat
{'cnf.clauses': '118081',
 'cnf.totvars': '69608',
 'conflict literals': '255',
 'conflicts': '59',
 'decisions': '7739',
 'memused.mb': '15.08',
 'outcome': 'UNSAT',
 'propagations': '71533',
 'restarts': '1',
 'solver.msecs': 30,
 'task.msecs': 95}
