proyfinal/src/viki/013/experimentInOfficeAgust.take6.output/7698fe7d-7a64-461c-ad92-21d00dbd3205.als.out
Reading from standard input... Use '--help' for help.
============================[ Problem Statistics ]=============================
|                                                                             |
|  Number of variables:         69608                                         |
|  Number of clauses:          118081                                         |
|  Parse time:                   0.02 s                                       |
|                                                                             |
============================[ Search Statistics ]==============================
| Conflicts |          ORIGINAL         |          LEARNT          | Progress |
|           |    Vars  Clauses Literals |    Limit  Clauses Lit/Cl |          |
===============================================================================
===============================================================================
restarts              : 1
conflicts             : 59             (1929 /sec)
decisions             : 7739           (0.00 % random) (252991 /sec)
propagations          : 71533          (2338444 /sec)
conflict literals     : 255            (14.14 % deleted)
Memory used           : 15.08 MB
CPU time              : 0.03059 s

UNSATISFIABLE
